&control
 calculation = 'scf'
 prefix='wurtziteZnO',
 tstress = .true.
 tprnfor = .true.
 pseudo_dir = '../../original/QE_primitive/',
 outdir='./work/'
 disk_io='low'
/
&system
 ibrav = 0,
 nat = 4,
 ntyp = 2,
 ecutwfc = 80.0,
 ecutrho = 400.0,
 occupations = 'smearing'
 smearing = gaussian
 degauss = 0.01
/
&electrons
 mixing_beta = 0.7
 conv_thr = 1.0d-8
/
&ions
/
&cell
/
ATOMIC_SPECIES
Zn 65.38  Zn.pbe-dnl-kjpaw_psl.1.0.0.UPF  ! suggested min cutoff : 44.0, 276.0
O  15.999 O.pbe-n-kjpaw_psl.1.0.0.UPF     ! suggested min cutoff : 47.0, 323.0 

CELL_PARAMETERS angstrom
   3.278393067  -0.000000000  -0.000000000
  -1.639196533   2.839171679  -0.000000000
   0.000000000   0.000000000   5.293838622

ATOMIC_POSITIONS crystal
Zn            0.3333333333        0.6666666667        0.0006956880
Zn            0.6666666667        0.3333333333        0.5006956880
O             0.3333333333        0.6666666667        0.3796143120
O             0.6666666667        0.3333333333        0.8796143120

K_POINTS {automatic}
8 8 8 0 0 0
