Generated by cif2cell 1.2.10.  :  Failed
   3.28910200000000
     0.9838123981487253    0.0000000000000000   -0.0000000000000000
    -0.4919061990743627    0.8520065293548874    0.0000000000000000
     0.0000000000000000    0.0000000000000000    1.5884919427665547
   Zn   O
     2     2
Direct
  0.3333333333333357  0.6666666666666643  0.0007329609365558
  0.6666666666666643  0.3333333333333357  0.5007329609365557
  0.3333333333333357  0.6666666666666643  0.3795770390634456
  0.6666666666666643  0.3333333333333357  0.8795770390634458