&control
 calculation = 'scf'
 prefix='cubicBTO',
 tstress = .true.
 tprnfor = .true.
 pseudo_dir = '../../original/QE/',
 outdir='./work/'
 disk_io='low'
/
&system
 ibrav = 0,
 nat = 40,
 ntyp = 3,
 ecutwfc = 120.0,
 ecutrho = 600.0,
 occupations = 'smearing'
 smearing = gaussian
 degauss = 0.01
/
&electrons
 mixing_beta = 0.7
 conv_thr = 1.0d-8
/
&ions
/
&cell
/
ATOMIC_SPECIES
Ba 226.025 Ba.pbe-spn-kjpaw_psl.1.0.0.UPF ! suggested min cutoff : 37.0, 176.0
Ti 47.867 Ti.pbe-spn-kjpaw_psl.1.0.0.UPF  ! suggested min cutoff : 52.0, 576.0
O  15.999 O.pbe-n-kjpaw_psl.1.0.0.UPF     ! suggested min cutoff : 47.0, 323.0 

CELL_PARAMETERS angstrom
8.056947033 0.0 0.0
0.0 8.056947033 0.0
0.0 0.0 8.056947033

ATOMIC_POSITIONS crystal
Ba 0.000000000000000 0.000000000000000 0.000000000000000
Ba 0.000000000000000 0.000000000000000 0.500000000000000
Ba 0.000000000000000 0.500000000000000 0.000000000000000
Ba 0.000000000000000 0.500000000000000 0.500000000000000
Ba 0.500000000000000 0.000000000000000 0.000000000000000
Ba 0.500000000000000 0.000000000000000 0.500000000000000
Ba 0.500000000000000 0.500000000000000 0.000000000000000
Ba 0.500000000000000 0.500000000000000 0.500000000000000
Ti 0.250000000000000 0.250000000000000 0.250000000000000
Ti 0.250000000000000 0.250000000000000 0.750000000000000
Ti 0.250000000000000 0.750000000000000 0.250000000000000
Ti 0.250000000000000 0.750000000000000 0.750000000000000
Ti 0.750000000000000 0.250000000000000 0.250000000000000
Ti 0.750000000000000 0.250000000000000 0.750000000000000
Ti 0.750000000000000 0.750000000000000 0.250000000000000
Ti 0.750000000000000 0.750000000000000 0.750000000000000
O  0.000000000000000 0.250000000000000 0.250000000000000
O  0.000000000000000 0.250000000000000 0.750000000000000
O  0.000000000000000 0.750000000000000 0.250000000000000
O  0.000000000000000 0.750000000000000 0.750000000000000
O  0.250000000000000 0.000000000000000 0.250000000000000
O  0.250000000000000 0.000000000000000 0.750000000000000
O  0.250000000000000 0.250000000000000 0.000000000000000
O  0.250000000000000 0.250000000000000 0.500000000000000
O  0.250000000000000 0.500000000000000 0.250000000000000
O  0.250000000000000 0.500000000000000 0.750000000000000
O  0.250000000000000 0.750000000000000 0.000000000000000
O  0.250000000000000 0.750000000000000 0.500000000000000
O  0.500000000000000 0.250000000000000 0.250000000000000
O  0.500000000000000 0.250000000000000 0.750000000000000
O  0.500000000000000 0.750000000000000 0.250000000000000
O  0.500000000000000 0.750000000000000 0.750000000000000
O  0.750000000000000 0.000000000000000 0.250000000000000
O  0.750000000000000 0.000000000000000 0.750000000000000
O  0.750000000000000 0.250000000000000 0.000000000000000
O  0.750000000000000 0.250000000000000 0.500000000000000
O  0.750000000000000 0.500000000000000 0.250000000000000
O  0.750000000000000 0.500000000000000 0.750000000000000
O  0.750000000000000 0.750000000000000 0.000000000000000
O  0.750000000000000 0.750000000000000 0.500000000000000

K_POINTS {automatic}
4 4 4 0 0 0
